(set-logic QF_S)
(declare-fun var_0xINPUT_113194 () String)
(assert (and (= (len var_0xINPUT_113194) 0) (= (len var_0xINPUT_113194) 0) (not (= var_0xINPUT_113194 "MEXdqBDMmF"))))
(check-sat var_0xINPUT_113194)